30 61
28
5 7 7 50
5 14 16 15
14 8 2 21
8 4 4 57
13 21 0 0
7 11 23 29
14 11 12 50
14 5 3 29
5 4 21 46
18 3 0 37
3 21 0 40
17 11 13 0
4 11 26 13
4 7 3 50
5 4 18 36
6 7 17 29
5 18 21 11
5 3 13 11
3 7 13 14
3 5 26 24
4 18 26 40
4 3 26 58
2 12 0 22
2 6 24 40
18 5 3 45
21 5 3 40
17 3 0 34
3 4 18 11
